ROUTE 0: 131 74 34 4 100 36 192 204 33 62 179 137 117 162 35 177 134 94 63 104 135 170 165 3 158 144 180 113 70 174 89 16 58 173 5 187 7 156 22 55 96 111 175 155 140 1 72 115
ROUTE 1: 23 41 47 56 199 116 65 77 61 143 31 152 139 88 103 43 118 19 92 184 178 44 146 193 27 68 124 38 145 102 75 69 196 138 107 13 159 122 186 125 42 185 101 112 127 114 24 136 50 126 10 46 201 85 87 163
ROUTE 2: 168 164 183 181 45 8 73 91 79 161 26 150 151 203 78 57 90 141 11 142 66 105 176 14 17 133 166 157 84 123 130 198 93 64 98 189 121 83 20 30 109 110 12 25 153 169 154 86 53 148 171 99
ROUTE 3: 18 67 60 119 71 48 167 197 194 95 21 6 40 32 128 200 191 132 195 15 59 51 172 81 120 9 129 29 147 160 37 49 28 149 106 82 2 182 54 76 108 188 97 190 52 39 202 80
FINAL_COST: 3445.72
